161 5
10 10 10 10 10 

0 0 0 0 0 0 5 2 24 46 68 90 
0 0 0 0 0 0 14 3 4 6 9 13 14 15 16 17 18 19 20 21 22 
4 0 4 0 0 5 2 12 7 
10 0 5 0 0 7 1 5 
2 0 8 0 0 8 1 7 
6 0 10 0 0 8 2 11 10 
2 0 6 0 0 10 1 8 
3 0 10 0 0 6 1 10 
10 0 6 0 0 10 1 10 
3 0 6 0 0 9 1 23 
2 0 10 0 0 4 1 23 
8 0 7 0 0 10 1 23 
9 0 10 0 0 7 1 23 
5 0 9 0 0 6 1 23 
7 0 6 0 0 8 1 23 
8 0 7 0 0 10 1 23 
9 0 9 0 0 4 1 23 
5 0 5 0 0 7 2 23 65 
1 0 10 0 0 9 1 23 
6 0 6 0 0 8 1 23 
7 0 10 0 0 4 1 23 
3 0 6 0 0 10 1 23 
0 0 0 0 0 0 1 126 
0 0 0 0 0 0 10 25 26 27 30 31 32 33 35 43 44 
5 0 3 0 6 0 5 42 41 40 38 34 
1 0 10 0 5 0 3 39 38 28 
9 0 4 0 4 0 2 39 29 
3 0 5 0 10 0 3 41 40 36 
1 0 10 0 5 0 2 38 34 
4 0 8 0 10 0 2 40 36 
8 0 8 0 10 0 2 39 36 
1 0 7 0 7 0 2 42 39 
6 0 6 0 10 0 2 38 37 
10 0 5 0 10 0 1 36 
6 0 7 0 5 0 2 36 110 
9 0 9 0 10 0 1 37 
8 0 8 0 4 0 1 45 
3 0 9 0 10 0 1 45 
3 0 7 0 10 0 1 45 
10 0 10 0 7 0 1 45 
9 0 10 0 3 0 1 45 
3 0 10 0 9 0 1 45 
4 0 5 0 9 0 1 45 
10 0 9 0 6 0 1 45 
0 0 0 0 0 0 1 126 
0 0 0 0 0 0 5 47 48 49 50 52 
9 0 4 3 0 0 3 59 53 51 
7 0 10 7 0 0 2 59 51 
5 0 3 6 0 0 5 66 59 56 55 54 
6 0 8 9 0 0 3 56 55 53 
8 0 7 10 0 0 4 66 56 55 54 
3 0 8 7 0 0 5 66 60 59 57 56 
7 0 10 6 0 0 3 66 61 54 
5 0 8 6 0 0 4 64 60 58 57 
1 0 10 10 0 0 4 64 60 58 57 
9 0 6 9 0 0 3 64 63 61 
3 0 6 6 0 0 2 65 62 
1 0 7 5 0 0 2 63 62 
9 0 8 10 0 0 2 63 62 
2 0 10 10 0 0 1 63 
7 0 6 10 0 0 1 62 
9 0 8 5 0 0 2 67 78 
2 0 7 8 0 0 1 67 
8 0 7 9 0 0 1 67 
10 0 9 5 0 0 1 67 
6 0 8 9 0 0 1 67 
0 0 0 0 0 0 1 126 
0 0 0 0 0 0 6 69 72 75 77 87 88 
4 0 0 5 2 0 2 86 70 
7 0 0 6 8 0 5 85 84 79 76 71 
7 0 0 9 7 0 3 83 78 74 
10 0 0 7 8 0 2 82 73 
7 0 0 6 10 0 2 79 76 
9 0 0 6 7 0 2 81 80 
1 0 0 6 7 0 2 82 78 
7 0 0 9 10 0 1 78 
2 0 0 7 5 0 1 82 
2 0 0 10 6 0 1 89 
7 0 0 7 10 0 1 89 
9 0 0 8 6 0 1 89 
7 0 0 7 6 0 1 89 
6 0 0 8 8 0 1 89 
4 0 0 8 10 0 1 89 
6 0 0 7 8 0 1 89 
4 0 0 9 9 0 1 89 
2 0 0 10 8 0 1 89 
8 0 0 6 6 0 1 89 
6 0 0 9 9 0 1 89 
0 0 0 0 0 0 1 126 
0 0 0 0 0 0 3 91 92 93 
5 0 0 0 3 0 4 98 97 95 94 
1 0 0 0 10 0 4 100 98 96 95 
7 0 0 0 1 0 3 99 97 95 
1 0 0 0 10 0 1 96 
10 0 0 0 10 0 1 101 
7 0 0 0 7 0 1 101 
8 0 0 0 8 0 1 101 
3 0 0 0 9 0 1 101 
6 0 0 0 9 0 1 101 
1 0 0 0 8 0 1 101 
0 0 0 0 0 0 2 102 114 
0 0 0 0 0 0 5 103 105 106 111 112 
4 3 0 0 0 0 3 110 107 104 
5 6 0 0 0 0 2 109 108 
1 10 0 0 0 0 2 108 107 
8 6 0 0 0 0 1 107 
8 10 0 0 0 0 1 113 
2 6 0 0 0 0 1 113 
10 10 0 0 0 0 1 113 
10 9 0 0 0 0 1 113 
9 5 0 0 0 0 1 113 
1 10 0 0 0 0 1 113 
0 0 0 0 0 0 1 126 
0 0 0 0 0 0 2 115 116 
1 0 0 0 4 0 4 120 119 118 117 
5 0 0 0 5 0 4 120 119 118 117 
10 0 0 0 8 0 4 124 123 122 121 
9 0 0 0 10 0 4 124 123 122 121 
4 0 0 0 10 0 4 124 123 122 121 
4 0 0 0 5 0 4 124 123 122 121 
7 0 0 0 7 0 1 125 
5 0 0 0 10 0 1 125 
10 0 0 0 6 0 1 125 
3 0 0 0 10 0 1 125 
0 0 0 0 0 0 1 126 
0 0 0 0 0 0 4 127 128 129 136 
4 0 0 0 0 3 5 135 134 132 131 130 
2 0 0 0 0 8 4 134 132 131 130 
5 0 0 0 0 7 2 134 130 
3 0 0 0 0 8 1 133 
4 0 0 0 0 3 1 133 
9 0 0 0 0 6 1 133 
1 0 0 0 0 10 1 137 
7 0 0 0 0 10 1 137 
6 0 0 0 0 10 1 137 
4 0 0 0 0 10 1 137 
0 0 0 0 0 0 1 138 
0 0 0 0 0 0 5 139 141 146 147 148 
2 0 0 0 3 0 4 145 144 142 140 
7 0 0 0 6 0 1 143 
1 0 0 0 10 0 1 142 
2 0 0 0 9 0 1 149 
1 0 0 0 4 0 1 149 
1 0 0 0 9 0 1 149 
9 0 0 0 8 0 1 149 
7 0 0 0 9 0 1 149 
2 0 0 0 8 0 1 149 
10 0 0 0 9 0 1 149 
0 0 0 0 0 0 1 150 
0 0 0 0 0 0 5 151 152 154 155 156 
3 0 4 0 0 0 3 160 159 153 
9 0 7 0 0 0 2 159 153 
8 0 8 0 0 0 2 158 157 
4 0 5 0 0 0 2 160 158 
1 0 10 0 0 0 1 159 
6 0 10 0 0 0 1 157 
8 0 8 0 0 0 1 161 
6 0 7 0 0 0 1 161 
10 0 8 0 0 0 1 161 
7 0 8 0 0 0 1 161 
0 0 0 0 0 0 0 
